4
15
40
40	31
1	3	5	11	11	6	17	4	
2	1	16	3	
3	4	13	3	6	2	11	5	12	5	
4	2	5	4	4	14	
5	4	24	2	5	5	7	10	6	6	
6	4	7	7	6	6	28	4	26	3	
7	2	6	8	5	5	
8	3	25	3	8	2	6	12	
9	2	25	2	17	3	
10	1	5	5	
11	4	6	14	10	8	27	4	10	2	
12	3	21	2	5	4	7	5	
13	3	24	3	14	4	4	11	
14	3	15	5	8	4	4	10	
15	1	31	4	
